Optimal - objective value 1139.00000000
      2 x_2                    1                      19
      6 x_6                    1                       0
      8 x_8                    1                      -5
     15 x_15                   1                      12
     17 x_17                   1                       0
     24 x_24                   1                       0
     26 x_26                   1                      23
     28 x_28                   1                       0
     33 x_33                   1                      10
     39 x_39                   1                       0
     45 x_45                   1                      -8
     50 x_50                   1                       0
     51 x_51                   1                       3
     56 x_56                   1                       0
     59 x_59                   1                      17
     64 x_64                   1                       1
     69 x_69                   1                       0
     73 x_73                   1                     -16
     78 x_78                   1                       0
     80 x_80                   1                       0
     86 x_86                   1                      -9
     89 x_89                   1                       0
     92 x_92                   1                       0
     98 x_98                   1                       0
    103 x_103                  1                       0
    110 x_110                  1                      45
    112 x_112                  1                       3
    115 x_115                  1                       0
    119 x_119                  1                       0
    125 x_125                  1                       0
    131 x_131                  1                       7
    137 x_137                  1                      15
    143 x_143                  1                     -14
    147 x_147                  1                       9
    151 x_151                  1                       0
    156 x_156                  1                     -21
    159 x_159                  1                       8
    164 x_164                  1                       0
    167 x_167                  1                       9
    170 x_170                  1                      30
    173 x_173                  1                      35
    182 x_182                  1                      -7
    185 x_185                  1                      24
    190 x_190                  1                      -2
    192 x_192                  1                      14
    198 x_198                  1                     -19
    202 x_202                  1                       4
    207 x_207                  1                       0
    211 x_211                  1                       0
    214 x_214                  1                      -2
    219 x_219                  1                      10
    228 x_228                  1                     -20
    233 x_233                  1                      21
    237 x_237                  1                     -31
    240 x_240                  1                      17
    243 x_243                  1                       0
    248 x_248                  1                       0
    251 x_251                  1                     -13
    257 x_257                  1                       8
    263 x_263                  1                      28
Optimal - objective value 1139.00000000
      2 x_2                    1                      19
      6 x_6                    1                       0
      8 x_8                    1                      -5
     15 x_15                   1                      12
     17 x_17                   1                       0
     24 x_24                   1                       0
     26 x_26                   1                      23
     28 x_28                   1                       0
     33 x_33                   1                      10
     39 x_39                   1                       0
     45 x_45                   1                      -8
     50 x_50                   1                       0
     51 x_51                   1                       3
     56 x_56                   1                       0
     59 x_59                   1                      17
     64 x_64                   1                       1
     69 x_69                   1                       0
     73 x_73                   1                     -16
     78 x_78                   1                       0
     80 x_80                   1                       0
     86 x_86                   1                      -9
     89 x_89                   1                       0
     92 x_92                   1                       0
     98 x_98                   1                       0
    103 x_103                  1                       0
    110 x_110                  1                      45
    112 x_112                  1                       3
    115 x_115                  1                       0
    119 x_119                  1                       0
    125 x_125                  1                       0
    131 x_131                  1                       7
    137 x_137                  1                      15
    143 x_143                  1                     -14
    147 x_147                  1                       9
    151 x_151                  1                       0
    156 x_156                  1                     -21
    159 x_159                  1                       8
    164 x_164                  1                       0
    167 x_167                  1                       9
    170 x_170                  1                      30
    173 x_173                  1                      35
    182 x_182                  1                      -7
    185 x_185                  1                      24
    190 x_190                  1                      -2
    192 x_192                  1                      14
    198 x_198                  1                     -19
    202 x_202                  1                       4
    207 x_207                  1                       0
    211 x_211                  1                       0
    214 x_214                  1                      -2
    219 x_219                  1                      10
    228 x_228                  1                     -20
    233 x_233                  1                      21
    237 x_237                  1                     -31
    240 x_240                  1                      17
    243 x_243                  1                       0
    248 x_248                  1                       0
    251 x_251                  1                     -13
    257 x_257                  1                       8
    263 x_263                  1                      28
